NAME : TW_240_seed_None_id_0
TYPE : CVRPTW
DIMENSION : 16
EDGE_WEIGHT_TYPE : EUC_2D
CAPACITY : 25
SERVICE_TIME : 100
LATE_COEFF : 0
NODE_COORD_SECTION
1	255	757
2	293	639
3	830	686
4	196	297
5	477	955
6	677	305
7	604	476
8	145	787
9	269	696
10	733	252
11	887	579
12	65	12
13	926	916
14	93	247
15	360	859
16	517	177
DEMAND_SECTION
1	0
2	1
3	8
4	6
5	4
6	9
7	4
8	7
9	10
10	4
11	9
12	8
13	9
14	10
15	3
16	2
TIME_WINDOW_SECTION
1	0	10000
2	6760	8740
3	68	2124
4	5681	7590
5	623	2584
6	3949	5957
7	5267	7253
8	2679	4629
9	7795	9858
10	7678	9648
11	6139	8168
12	7471	9288
13	5777	7740
14	2404	4254
15	5959	7892
16	5056	6993
DEPOT_SECTION
1
-1
EOF
